
Gurobi 7.0.2 (linux64, Python) logging started Tue Apr 25 13:48:30 2017


Gurobi 7.0.2 (linux64, Python) logging started Tue Apr 25 13:48:42 2017


Gurobi 7.0.2 (linux64, Python) logging started Tue Apr 25 14:04:58 2017


Gurobi 7.0.2 (linux64, Python) logging started Tue Apr 25 15:37:06 2017

